c # BDD stored by the DDDMP tool in CNF format
c #
c # Warning: BDD IDs missing ... evaluating them.
c # 
c # Warning: AUX IDs missing ... equal to BDD IDs.
c #
c # Warning: CNF IDs missing ... equal to BDD IDs.
c #
c .ver DDDMP-2.0
c .nnodes 57
c .nvars 21
c .nsuppvars 18
c .suppvarnames K K' L L' M M' N N' O O' P P' Q Q' R R' S S'
c .orderedvarnames K K' L L' M M' N N' O O' P P' Q Q' R R' S S' _jx_b0 _jx_b1 strat_type
c .ids  0 1 2 3 4 5 6 7 8 9 10 11 12 13 14 15 16 17
c .permids  0 1 2 3 4 5 6 7 8 9 10 11 12 13 14 15 16 17
c .auxids  0 1 2 3 4 5 6 7 8 9 10 11 12 13 14 15 16 17
c .cnfids  1 2 3 4 5 6 7 8 9 10 11 12 13 14 15 16 17 18
c .nroots 1
c .rootids 1         
c .nAddedCnfVar 0
c #
c # Init CNF Clauses
c #
p cnf 18 121               
1 2 3 4 5 6 7 8 9 10 11 12 13 14 15 16 17 0
1 2 3 4 5 6 7 8 9 10 11 12 13 14 15 16 18 0
1 2 3 4 5 6 7 8 9 10 11 12 13 14 15 -16 17 0
1 2 3 4 5 6 7 8 9 10 11 12 13 14 -15 16 18 0
1 2 3 4 5 6 7 8 9 10 11 12 13 -14 15 17 0
1 2 3 4 5 6 7 8 9 10 11 12 -13 14 16 18 0
1 2 3 4 5 6 7 8 9 10 11 -12 13 15 17 0
1 2 3 4 5 6 7 8 9 10 -11 12 14 16 18 0
1 2 3 4 5 6 7 8 9 -10 11 13 15 17 0
1 2 3 4 5 6 7 8 -9 10 12 14 16 18 0
1 2 3 4 5 6 7 -8 9 11 13 15 17 0
1 2 3 4 5 6 7 -8 9 11 13 15 -16 0
1 2 3 4 5 6 7 -8 9 11 13 -15 -16 0
1 2 3 4 5 6 7 -8 9 11 -13 -16 0
1 2 3 4 5 6 7 -8 9 -11 -16 0
1 2 3 4 5 6 7 -8 -9 -16 0
1 2 3 4 5 6 -7 8 10 12 14 16 18 0
1 2 3 4 5 6 -7 8 10 12 14 -15 0
1 2 3 4 5 6 -7 8 10 12 -14 -15 0
1 2 3 4 5 6 -7 8 10 -12 -15 0
1 2 3 4 5 6 -7 8 -10 -15 0
1 2 3 4 5 6 -7 -8 -16 0
1 2 3 4 5 6 -7 -8 -15 0
1 2 3 4 5 -6 7 8 9 11 13 15 17 0
1 2 3 4 5 -6 7 -8 9 11 13 15 17 0
1 2 3 4 5 -6 7 -8 9 11 13 15 -16 0
1 2 3 4 5 -6 7 -8 9 11 13 -15 -16 0
1 2 3 4 5 -6 7 -8 9 11 -13 -16 0
1 2 3 4 5 -6 7 -8 9 -11 -16 0
1 2 3 4 5 -6 7 -8 -9 -16 0
1 2 3 4 5 -6 -7 8 -15 0
1 2 3 4 5 -6 -7 -8 -16 0
1 2 3 4 5 -6 -7 -8 -15 0
1 2 3 4 -5 6 7 8 10 12 14 16 18 0
1 2 3 4 -5 6 7 -8 -16 0
1 2 3 4 -5 6 -7 8 10 12 14 16 18 0
1 2 3 4 -5 6 -7 8 10 12 14 -15 0
1 2 3 4 -5 6 -7 8 10 12 -14 -15 0
1 2 3 4 -5 6 -7 8 10 -12 -15 0
1 2 3 4 -5 6 -7 8 -10 -15 0
1 2 3 4 -5 6 -7 -8 -16 0
1 2 3 4 -5 6 -7 -8 -15 0
1 2 3 4 -5 -6 7 -8 -16 0
1 2 3 4 -5 -6 -7 8 -15 0
1 2 3 4 -5 -6 -7 -8 -16 0
1 2 3 4 -5 -6 -7 -8 -15 0
1 2 3 -4 5 7 8 9 11 13 15 17 0
1 2 3 -4 5 7 -8 9 11 13 15 17 0
1 2 3 -4 5 7 -8 9 11 13 15 -16 0
1 2 3 -4 5 7 -8 9 11 13 -15 -16 0
1 2 3 -4 5 7 -8 9 11 -13 -16 0
1 2 3 -4 5 7 -8 9 -11 -16 0
1 2 3 -4 5 7 -8 -9 -16 0
1 2 3 -4 5 -7 8 -15 0
1 2 3 -4 5 -7 -8 -16 0
1 2 3 -4 5 -7 -8 -15 0
1 2 3 -4 -5 7 -8 -16 0
1 2 3 -4 -5 -7 8 -15 0
1 2 3 -4 -5 -7 -8 -16 0
1 2 3 -4 -5 -7 -8 -15 0
1 2 -3 4 6 7 8 10 12 14 16 18 0
1 2 -3 4 6 7 -8 -16 0
1 2 -3 4 6 -7 8 10 12 14 16 18 0
1 2 -3 4 6 -7 8 10 12 14 -15 0
1 2 -3 4 6 -7 8 10 12 -14 -15 0
1 2 -3 4 6 -7 8 10 -12 -15 0
1 2 -3 4 6 -7 8 -10 -15 0
1 2 -3 4 6 -7 -8 -16 0
1 2 -3 4 6 -7 -8 -15 0
1 2 -3 4 -6 7 -8 -16 0
1 2 -3 4 -6 -7 8 -15 0
1 2 -3 4 -6 -7 -8 -16 0
1 2 -3 4 -6 -7 -8 -15 0
1 2 -3 -4 7 -8 -16 0
1 2 -3 -4 -7 8 -15 0
1 2 -3 -4 -7 -8 -16 0
1 2 -3 -4 -7 -8 -15 0
1 -2 3 5 7 8 9 11 13 15 17 0
1 -2 3 5 7 -8 9 11 13 15 17 0
1 -2 3 5 7 -8 9 11 13 15 -16 0
1 -2 3 5 7 -8 9 11 13 -15 -16 0
1 -2 3 5 7 -8 9 11 -13 -16 0
1 -2 3 5 7 -8 9 -11 -16 0
1 -2 3 5 7 -8 -9 -16 0
1 -2 3 5 -7 8 -15 0
1 -2 3 5 -7 -8 -16 0
1 -2 3 5 -7 -8 -15 0
1 -2 3 -5 7 -8 -16 0
1 -2 3 -5 -7 8 -15 0
1 -2 3 -5 -7 -8 -16 0
1 -2 3 -5 -7 -8 -15 0
1 -2 3 -4 0
1 -2 -3 7 -8 -16 0
1 -2 -3 -7 8 -15 0
1 -2 -3 -7 -8 -16 0
1 -2 -3 -7 -8 -15 0
1 -2 -3 -4 0
-1 2 4 6 7 8 10 12 14 16 18 0
-1 2 4 6 7 -8 -16 0
-1 2 4 6 -7 8 10 12 14 16 18 0
-1 2 4 6 -7 8 10 12 14 -15 0
-1 2 4 6 -7 8 10 12 -14 -15 0
-1 2 4 6 -7 8 10 -12 -15 0
-1 2 4 6 -7 8 -10 -15 0
-1 2 4 6 -7 -8 -16 0
-1 2 4 6 -7 -8 -15 0
-1 2 4 -6 7 -8 -16 0
-1 2 4 -6 -7 8 -15 0
-1 2 4 -6 -7 -8 -16 0
-1 2 4 -6 -7 -8 -15 0
-1 2 -4 7 -8 -16 0
-1 2 -4 -7 8 -15 0
-1 2 -4 -7 -8 -16 0
-1 2 -4 -7 -8 -15 0
-1 2 -3 0
-1 -2 7 -8 -16 0
-1 -2 -7 8 -15 0
-1 -2 -7 -8 -16 0
-1 -2 -7 -8 -15 0
-1 -2 -4 0
-1 -2 -3 0
c # End of Cnf From dddmp-2.0
